(set-option :produce-models true)
(set-logic QF_UF)
(declare-fun p76() Bool)
(declare-fun p29() Bool)
(declare-fun p65() Bool)
(declare-fun p32() Bool)
(declare-fun p54() Bool)
(declare-fun p13() Bool)
(declare-fun p50() Bool)
(declare-fun p60() Bool)
(declare-fun p89() Bool)
(declare-fun p82() Bool)
(declare-fun p41() Bool)
(declare-fun p14() Bool)
(declare-fun p26() Bool)
(declare-fun p74() Bool)
(declare-fun p2() Bool)
(declare-fun p17() Bool)
(declare-fun p47() Bool)
(declare-fun p12() Bool)
(declare-fun p77() Bool)
(declare-fun p44() Bool)
(declare-fun p79() Bool)
(declare-fun p66() Bool)
(declare-fun p10() Bool)
(declare-fun p36() Bool)
(declare-fun p51() Bool)
(declare-fun p49() Bool)
(declare-fun p27() Bool)
(declare-fun p6() Bool)
(declare-fun p37() Bool)
(declare-fun p61() Bool)
(declare-fun p63() Bool)
(declare-fun p57() Bool)
(declare-fun p52() Bool)
(declare-fun p19() Bool)
(declare-fun p39() Bool)
(declare-fun p86() Bool)
(declare-fun p78() Bool)
(declare-fun p81() Bool)
(declare-fun p46() Bool)
(declare-fun p73() Bool)
(declare-fun p4() Bool)
(declare-fun p88() Bool)
(declare-fun p0() Bool)
(declare-fun p20() Bool)
(declare-fun p85() Bool)
(declare-fun p75() Bool)
(declare-fun p80() Bool)
(declare-fun p87() Bool)
(declare-fun p21() Bool)
(declare-fun p31() Bool)
(declare-fun p56() Bool)
(declare-fun p69() Bool)
(declare-fun p53() Bool)
(declare-fun p45() Bool)
(declare-fun p42() Bool)
(declare-fun p3() Bool)
(declare-fun p67() Bool)
(declare-fun p48() Bool)
(declare-fun p8() Bool)
(declare-fun p1() Bool)
(declare-fun p64() Bool)
(declare-fun p24() Bool)
(declare-fun p35() Bool)
(declare-fun p83() Bool)
(declare-fun p62() Bool)
(declare-fun p11() Bool)
(declare-fun p7() Bool)
(declare-fun p58() Bool)
(declare-fun p71() Bool)
(declare-fun p72() Bool)
(declare-fun p59() Bool)
(declare-fun p9() Bool)
(declare-fun p16() Bool)
(declare-fun p22() Bool)
(declare-fun p33() Bool)
(declare-fun p5() Bool)
(declare-fun p30() Bool)
(declare-fun p38() Bool)
(declare-fun p15() Bool)
(declare-fun p70() Bool)
(declare-fun p43() Bool)
(declare-fun p28() Bool)
(declare-fun p23() Bool)
(declare-fun p68() Bool)
(declare-fun p55() Bool)
(declare-fun p84() Bool)
(declare-fun p40() Bool)
(declare-fun p18() Bool)
(declare-fun p34() Bool)
(declare-fun p25() Bool)
(assert
(and (or (not p76) (not p29) (not p65)) (or (not p32) (not p54) p13) (or p50 (not p32) (not p60)) (or (not p89) p82 (not p41)) (or (not p29) p14 p26) (or p74 (not p2) (not p17)) (or p17 (not p47) (not p12)) (or p50 (not p77) (not p44)) (or (not p79) p82 (not p66)) (or p10 (not p36) (not p51)) (or (not p49) p27 (not p6)) (or p49 (not p37) p61) (or p2 (not p63) (not p57)) (or (not p52) (not p19) p39) (or p76 p19 (not p65)) (or p86 (not p13) p65) (or p47 (not p78) (not p26)) (or p6 (not p81) (not p46)) (or (not p29) (not p73) (not p4)) (or p47 p88 p86) (or p0 p20 p85) (or p75 p41 (not p80)) (or (not p13) (not p87) (not p21)) (or (not p51) p31 (not p36)) (or (not p56) p78 p69) (or (not p85) p53 p45) (or (not p21) (not p42) p3) (or p67 (not p67) (not p48)) (or p60 (not p8) (not p1)) (or p64 p19 p73) (or p53 p60 (not p63)) (or (not p2) (not p17) (not p65)) (or (not p31) p37 (not p63)) (or p4 p24 (not p21)) (or (not p54) (not p52) (not p35)) (or (not p83) p14 p45) (or p6 p46 (not p80)) (or p10 (not p76) p76) (or (not p26) (not p41) (not p62)) (or p13 (not p12) p35) (or (not p11) p17 p7) (or (not p31) (not p58) (not p41)) (or p58 p80 p1) (or p27 p20 p17) (or p24 p37 p65) (or p74 (not p36) p6) (or p44 (not p12) (not p71)) (or p75 (not p71) (not p49)) (or p19 p78 p3) (or p52 (not p0) (not p29)) (or p79 p32 p72) (or (not p6) p78 p59) (or p24 (not p42) (not p53)) (or p67 (not p9) (not p74)) (or p59 (not p16) (not p89)) (or p29 p27 (not p22)) (or (not p45) p76 p71) (or p33 (not p76) p1) (or p44 p42 (not p72)) (or (not p88) p27 p32) (or (not p5) (not p32) p16) (or (not p36) p19 p30) (or p59 (not p4) (not p50)) (or p52 (not p41) (not p16)) (or p38 (not p7) (not p81)) (or (not p77) p36 (not p14)) (or (not p54) (not p62) (not p79)) (or (not p66) (not p5) (not p47)) (or p21 p61 p15) (or (not p39) p36 (not p70)) (or p74 (not p35) p53) (or (not p82) (not p1) (not p56)) (or p12 (not p0) p56) (or p36 p37 p10) (or (not p63) p85 (not p38)) (or (not p59) (not p8) (not p83)) (or (not p20) (not p11) p79) (or p72 p73 (not p3)) (or p57 (not p11) p14) (or (not p32) p45 (not p0)) (or p1 p43 (not p29)) (or (not p74) (not p69) p70) (or (not p74) p26 (not p19)) (or p46 (not p2) (not p2)) (or (not p48) (not p19) (not p63)) (or (not p22) (not p66) p89) (or p44 (not p12) (not p45)) (or (not p28) (not p85) (not p64)) (or (not p63) p23 (not p61)) (or p52 (not p68) p17) (or (not p11) (not p22) (not p0)) (or (not p64) p63 p28) (or (not p32) p55 (not p17)) (or p53 (not p2) (not p35)) (or p63 (not p72) p73) (or p8 p46 (not p27)) (or p77 p84 (not p61)) (or p73 (not p23) (not p4)) (or (not p33) p51 p61) (or (not p28) (not p38) p10) (or (not p19) (not p53) p57) (or (not p3) (not p84) p28) (or (not p73) p19 (not p89)) (or p20 (not p56) (not p82)) (or (not p86) p77 (not p40)) (or (not p41) (not p81) (not p53)) (or p60 p10 p84) (or (not p3) p10 p9) (or (not p52) (not p39) (not p63)) (or p24 (not p0) p71) (or p58 (not p54) (not p2)) (or (not p50) p57 (not p69)) (or p70 p54 p13) (or (not p57) (not p63) p31) (or (not p19) p3 p3) (or p52 p44 p18) (or p4 p53 (not p11)) (or p51 (not p11) (not p73)) (or p89 (not p74) p16) (or (not p78) p34 (not p23)) (or (not p58) (not p62) (not p17)) (or p57 p68 (not p64)) (or p47 p72 (not p73)) (or p75 p64 p19) (or (not p50) p65 (not p38)) (or (not p9) (not p57) (not p86)) (or (not p58) (not p1) (not p64)) (or (not p44) p52 (not p65)) (or (not p64) p40 (not p28)) (or (not p81) (not p2) p25) (or p5 (not p81) p1) (or (not p83) p6 (not p79)) (or (not p27) p26 p40) (or p8 (not p42) (not p68)) (or (not p32) (not p5) p29) (or (not p44) (not p36) (not p79)) (or p89 p51 (not p64)) (or p39 p11 (not p48)) (or p42 (not p85) p6) (or p74 (not p22) (not p69)) (or (not p58) p73 (not p1)) (or (not p76) (not p26) (not p43)) (or p19 p80 p49) (or (not p33) p19 p64) (or (not p5) (not p20) p66) (or (not p59) p11 p42) (or p50 (not p23) (not p39)) (or (not p60) p70 (not p41)) (or (not p27) (not p44) (not p83)) (or (not p87) p49 p84) (or p87 p78 p6) (or (not p10) (not p73) (not p23)) (or (not p57) p56 p45) (or (not p84) (not p81) (not p15)) (or p8 p20 p2) (or p54 p67 p48) (or (not p73) (not p7) p49) (or (not p80) p3 p80) (or (not p79) (not p81) p77) (or (not p89) (not p71) (not p71)) (or p58 p5 p54) (or p31 (not p54) p50) (or p88 (not p82) p88) (or (not p80) (not p42) p63) (or p33 (not p74) p55) (or p2 p61 p6) (or p5 (not p46) (not p13)) (or (not p46) p47 (not p39)) (or (not p42) p16 (not p40)) (or p11 p55 (not p0)) (or p75 p78 (not p47)) (or (not p50) (not p25) (not p27)) (or (not p31) (not p26) p34) (or (not p8) p29 p39) (or (not p57) p55 (not p57)) (or (not p88) (not p64) (not p65)) (or p49 p5 p19) (or p9 p31 p52) (or (not p78) (not p70) (not p18)) (or (not p66) p82 p64) (or (not p65) (not p16) (not p36)) (or p20 (not p41) (not p31)) (or p84 (not p68) p73) (or p19 p28 (not p70)) (or p84 (not p87) (not p54)) (or (not p86) p69 (not p22)) (or p89 p64 (not p24)) (or p48 (not p16) (not p71)) (or (not p45) (not p44) (not p16)) (or p20 (not p70) (not p40)) (or p1 p6 p10) (or p85 (not p80) (not p44)) (or (not p60) p60 p5) (or (not p60) p16 (not p89)) (or (not p1) (not p30) (not p58)) (or (not p9) p67 (not p81)) (or p43 (not p27) (not p29)) (or p30 (not p45) (not p15)) (or p12 p18 (not p22)) (or (not p31) p9 (not p8)) (or (not p74) p9 (not p62)) (or p31 p89 (not p4)) (or (not p82) (not p34) p57) (or p7 (not p46) (not p13)) (or (not p76) (not p26) p47) (or p86 (not p27) p16) (or (not p89) (not p14) (not p64)) (or p48 (not p60) p55) (or (not p76) (not p35) p88) (or p60 p35 (not p27)) (or (not p53) p44 (not p34)) (or p84 (not p27) p11) (or p52 (not p67) (not p13)) (or (not p27) (not p34) p34) (or p79 (not p70) (not p11)) (or p9 p40 p14) (or (not p46) p56 p33) (or (not p4) (not p39) p51) (or p33 p38 p54) (or (not p51) p86 (not p21)) (or (not p43) (not p14) (not p81)) (or p52 (not p36) (not p85)) (or p39 p87 p53) (or p49 p79 p58) (or p48 (not p63) p66) (or (not p80) (not p50) (not p52)) (or (not p60) (not p75) p15) (or (not p6) (not p75) p15) (or p19 (not p35) (not p71)) (or p44 p8 p48) (or (not p42) (not p5) (not p40)) (or (not p50) p48 (not p36)) (or (not p63) p47 p79) (or (not p40) (not p27) (not p53)) (or p53 (not p29) (not p28)) (or p24 (not p36) (not p11)) (or (not p80) p56 (not p72)) (or (not p65) (not p84) (not p8)) (or p62 (not p23) p47) (or (not p13) (not p82) p20) (or (not p24) p33 p73) (or (not p42) p14 p79) (or p28 p60 p67) (or p56 p64 (not p67)) (or p39 (not p55) (not p77)) (or p26 (not p67) (not p33)) (or p74 (not p83) (not p28)) (or p37 (not p11) (not p62)) (or p4 p53 p2) (or p63 (not p82) (not p88)) (or p4 (not p35) (not p28)) (or (not p75) (not p73) p25) (or (not p33) (not p24) (not p18)) (or (not p2) p23 (not p72)) (or (not p36) (not p8) (not p68)) (or p14 (not p8) (not p15)) (or (not p37) (not p15) (not p45)) (or p54 (not p29) p7) (or p46 p29 p76) (or (not p68) (not p61) (not p43)) (or p54 p61 p51) (or p30 p16 (not p85)) (or p5 (not p81) p21) (or (not p19) (not p70) p58) (or (not p40) (not p41) p79) (or (not p28) p60 p20) (or p52 (not p83) (not p63)) (or p25 p56 (not p77)) (or p68 (not p23) p31) (or p37 (not p36) (not p51)) (or p49 (not p76) (not p53)) (or (not p18) (not p5) p18) (or (not p16) p64 (not p31)) (or (not p86) (not p89) (not p50)) (or (not p13) p67 (not p82)) (or p41 p55 (not p27)) (or p31 p23 p86) (or p9 p75 p37) (or p64 p25 (not p80)) (or (not p68) (not p50) (not p70)) (or (not p30) p73 (not p33)) (or p60 p22 p21) (or (not p56) (not p11) p69) (or (not p30) p69 p54) (or (not p37) p14 p76) (or p60 p42 (not p71)) (or p45 (not p77) p7) (or (not p6) p81 p45) (or (not p44) (not p54) p28) (or p9 (not p33) p84) (or (not p54) p51 p57) (or p49 (not p46) p2) (or p23 (not p37) (not p17)) (or p16 (not p35) p14) (or p41 (not p74) (not p38)) (or (not p13) p19 p24) (or p39 (not p0) (not p88)) (or (not p50) p11 (not p63)) (or (not p55) p12 p28) (or (not p31) (not p78) (not p70)) (or (not p18) p37 p28) (or (not p88) p12 p81) (or (not p47) p40 p84) (or p74 (not p36) (not p72)) (or p47 (not p40) p24) (or p11 (not p15) p20) (or (not p83) p23 (not p0)) (or (not p75) (not p26) p30) (or p52 (not p27) p30) (or (not p47) (not p22) (not p51)) (or (not p16) p11 (not p77)) (or (not p68) (not p79) p44) (or (not p89) (not p34) p83) (or p18 (not p6) p61) (or p89 (not p29) p43) (or p78 p33 (not p6)) (or p62 p58 p50) (or p12 (not p34) (not p81)) (or (not p46) p81 p73) (or (not p27) p54 (not p35)) (or p15 (not p77) p39) (or (not p83) p69 (not p31)) (or p44 (not p33) (not p38)) (or p15 p31 (not p83)) (or p50 (not p32) (not p6)) (or (not p52) p18 p9) (or p39 (not p54) (not p1)) (or p1 (not p30) p50) (or p4 (not p46) p11) (or (not p54) p43 (not p43)) (or p2 (not p55) p59) (or (not p18) p45 (not p13)) (or (not p50) p89 p17) (or (not p58) (not p41) p64) (or (not p38) p12 (not p73)) (or p84 p12 p76) (or (not p18) p15 p58) (or p2 p79 p58) (or p79 (not p48) p38) (or p79 (not p50) p29) (or p82 (not p36) p37) (or p37 (not p47) (not p19)) (or p1 (not p64) p15) (or p42 p13 (not p75)) (or p45 p27 p33) (or p84 p21 p82) (or (not p67) (not p6) p15) (or (not p48) (not p68) p47) (or (not p83) p85 (not p32)) (or (not p0) p28 (not p33)) (or p52 (not p57) p20) (or p13 (not p35) p76) (or p26 (not p14) p62) (or (not p77) p2 (not p84)) (or (not p31) (not p54) (not p32)) (or p85 p85 (not p47)) (or (not p77) p50 (not p11)) (or (not p85) (not p30) p47) (or p2 (not p13) (not p43)) (or p75 (not p41) (not p33)) (or p43 p59 p83) (or p34 (not p60) p84) (or p33 p79 (not p37)) (or (not p30) (not p45) p14) (or (not p52) p64 p80) (or p51 (not p33) (not p89)) (or p4 (not p10) p21) (or (not p38) p7 (not p44)) (or (not p69) (not p72) p49) (or p8 p31 (not p44)) (or (not p17) p70 (not p82)) (or p73 p73 (not p48)) (or (not p22) p34 p87) (or p37 (not p53) p61) (or p69 p55 (not p81)) (or p7 p43 (not p71)) (or (not p82) (not p43) (not p5)) (or p44 p16 p86) (or (not p20) p30 (not p0)) (or p54 p78 p40) (or (not p2) p49 (not p54)) (or p84 (not p70) (not p30)) (or p69 p36 (not p23)) (or p82 (not p13) p87) (or (not p2) (not p64) (not p19)) (or (not p2) (not p16) (not p62)) (or p52 (not p81) (not p60)) (or p47 p82 (not p71)) (or (not p63) p26 p80) (or p5 p3 p37) (or p37 p82 (not p86)) (or (not p82) (not p5) p64) (or p42 (not p20) (not p12)) (or p5 p53 p30) (or p68 (not p77) p36) (or p75 (not p28) (not p60)) (or p76 (not p10) (not p68)) (or p82 p2 p14) (or p31 p24 p2) (or (not p21) p54 p75) (or p80 p22 p84) (or (not p61) p42 p22) (or (not p5) (not p1) p37) (or p83 (not p27) p4) (or (not p30) (not p6) p86) (or p58 (not p24) (not p48)) (or p79 p9 p59) (or (not p39) (not p25) p26) (or (not p87) p37 p89) (or (not p15) p82 (not p71)) (or (not p80) p84 p45) (or p61 p64 p59) (or (not p45) (not p67) p55) (or (not p11) p32 (not p83)) (or p11 (not p27) (not p38)) (or p33 p30 (not p48)) (or (not p64) p88 p87) (or (not p5) p59 (not p17)) (or p11 p80 p1) (or p43 (not p65) (not p73)) (or p33 (not p62) p55) (or p88 (not p63) (not p33)) (or (not p37) (not p32) p70) (or p1 (not p25) p25) (or p29 p17 (not p44)) (or (not p85) (not p7) (not p47)) (or (not p49) p21 (not p15)) (or p17 (not p10) p25) (or p49 (not p3) (not p80)) (or (not p39) (not p8) (not p48)) (or (not p11) p11 (not p27)) (or p50 p59 p69) (or (not p26) (not p70) (not p64)) (or p74 p71 p42) (or p85 p17 (not p9)) (or p12 (not p68) (not p66)) (or (not p42) (not p2) p89) (or (not p12) (not p8) p30) (or (not p2) p85 p76) (or p27 (not p33) (not p35)) (or (not p79) (not p13) (not p35)) (or p0 (not p7) p57) (or (not p14) (not p19) (not p11)) (or p53 p83 p40) (or (not p63) p13 p16) (or p31 p26 (not p27)) (or p3 (not p16) p80) (or p11 p84 (not p87)))
)
(check-sat)
(get-model)
